NAME 
ROWS
 N  OBJ
 L  R0      
 L  R1      
 L  R2      
 E  R3      
 E  R4      
 E  R5      
 E  R6      
 E  R7      
COLUMNS
    MARKER    'MARKER'                 'INTORG'
    I0(5)     OBJ       69
    I0(5)     R0        166
    I0(5)     R1        25
    I0(5)     R2        -120
    I0(5)     R4        9
    I0(5)     R7        1
    I1(4)     OBJ       -6
    I1(4)     R0        -32
    I1(4)     R1        99
    I1(4)     R2        -131
    I1(4)     R7        1
    MARKER    'MARKER'                 'INTEND'
    C2(6)     R0        2
    C2(6)     R1        -7
    C2(6)     R2        9
    C2(6)     R3        16
    C2(6)     R4        17
    C2(6)     R5        18
    C3(4)     OBJ       -5
    C3(4)     R0        -7
    C3(4)     R1        -4
    C3(4)     R2        8
    C3(4)     R3        11
    C4(5)     OBJ       3
    C4(5)     R0        -5
    C4(5)     R1        6
    C4(5)     R3        4
    C4(5)     R4        18
    C4(5)     R5        16
    C5(1)     R3        1
    C6(1)     R4        1
    C7(1)     R5        1
    C8(1)     R6        1
    C9(1)     R7        1
RHS
    RHS1      R0        -6.0454545454545453e+01
    RHS1      R1        -3.4545454545454547e+01
    RHS1      R2        69.0909090909091
    RHS1      R3        95
    RHS1      R4        96
    RHS1      R5        64
    RHS1      R6        79
BOUNDS
 UP BND1      I0(5)     1
 UP BND1      I1(4)     1
ENDATA
